problems/VanDerWaerdenNumbers/VanDerWaerden-models/noch/O2/lingeling/model_1-k3l4n33-solution000001.solution
language Essence 1.3

letting p be
        partition({1, 7, 15, 17, 19, 22, 23}, {2, 5, 6, 8, 9, 12, 14, 16, 21, 25, 26, 28, 29, 30},
                  {3, 4, 10, 11, 13, 18, 20, 24, 27, 31, 32, 33})
